NAME           C:\Bruker\Hvattum\knapsack\Problems\class4\100-10-27.mps
ROWS
 N  OBJ
 L  CONSTR1
 L  CONSTR2
 L  CONSTR3
 L  CONSTR4
 L  CONSTR5
 L  CONSTR6
 L  CONSTR7
 L  CONSTR8
 L  CONSTR9
 L  CONSTR10
COLUMNS
    INT0001   'MARKER'  'INTORG'
    X1        OBJ       909
    X1        CONSTR1   622
    X1        CONSTR2   819
    X1        CONSTR3   696
    X1        CONSTR4   255
    X1        CONSTR5   157
    X1        CONSTR6   162
    X1        CONSTR7   783
    X1        CONSTR8   721
    X1        CONSTR9   889
    X1        CONSTR10  512
    X2        OBJ       366
    X2        CONSTR1   349
    X2        CONSTR2   236
    X2        CONSTR3   506
    X2        CONSTR4   659
    X2        CONSTR5   281
    X2        CONSTR6   538
    X2        CONSTR7   61
    X2        CONSTR8   631
    X2        CONSTR9   121
    X2        CONSTR10  102
    X3        OBJ       893
    X3        CONSTR1   416
    X3        CONSTR2   407
    X3        CONSTR3   506
    X3        CONSTR4   354
    X3        CONSTR5   387
    X3        CONSTR6   40
    X3        CONSTR7   820
    X3        CONSTR8   412
    X3        CONSTR9   942
    X3        CONSTR10  800
    X4        OBJ       696
    X4        CONSTR1   612
    X4        CONSTR2   891
    X4        CONSTR3   495
    X4        CONSTR4   33
    X4        CONSTR5   890
    X4        CONSTR6   357
    X4        CONSTR7   513
    X4        CONSTR8   970
    X4        CONSTR9   124
    X4        CONSTR10  902
    X5        OBJ       568
    X5        CONSTR1   334
    X5        CONSTR2   161
    X5        CONSTR3   889
    X5        CONSTR4   771
    X5        CONSTR5   715
    X5        CONSTR6   674
    X5        CONSTR7   249
    X5        CONSTR8   136
    X5        CONSTR9   86
    X5        CONSTR10  319
    X6        OBJ       1054
    X6        CONSTR1   747
    X6        CONSTR2   406
    X6        CONSTR3   314
    X6        CONSTR4   904
    X6        CONSTR5   970
    X6        CONSTR6   232
    X6        CONSTR7   562
    X6        CONSTR8   225
    X6        CONSTR9   877
    X6        CONSTR10  918
    X7        OBJ       939
    X7        CONSTR1   114
    X7        CONSTR2   866
    X7        CONSTR3   135
    X7        CONSTR4   617
    X7        CONSTR5   105
    X7        CONSTR6   666
    X7        CONSTR7   262
    X7        CONSTR8   666
    X7        CONSTR9   111
    X7        CONSTR10  918
    X8        OBJ       808
    X8        CONSTR1   516
    X8        CONSTR2   3
    X8        CONSTR3   109
    X8        CONSTR4   914
    X8        CONSTR5   594
    X8        CONSTR6   257
    X8        CONSTR7   933
    X8        CONSTR8   379
    X8        CONSTR9   147
    X8        CONSTR10  433
    X9        OBJ       690
    X9        CONSTR1   347
    X9        CONSTR2   824
    X9        CONSTR3   961
    X9        CONSTR4   311
    X9        CONSTR5   442
    X9        CONSTR6   929
    X9        CONSTR7   234
    X9        CONSTR8   50
    X9        CONSTR9   83
    X9        CONSTR10  808
    X10       OBJ       753
    X10       CONSTR1   666
    X10       CONSTR2   872
    X10       CONSTR3   717
    X10       CONSTR4   759
    X10       CONSTR5   542
    X10       CONSTR6   744
    X10       CONSTR7   27
    X10       CONSTR8   654
    X10       CONSTR9   597
    X10       CONSTR10  79
    X11       OBJ       873
    X11       CONSTR1   227
    X11       CONSTR2   359
    X11       CONSTR3   542
    X11       CONSTR4   453
    X11       CONSTR5   70
    X11       CONSTR6   433
    X11       CONSTR7   352
    X11       CONSTR8   820
    X11       CONSTR9   274
    X11       CONSTR10  477
    X12       OBJ       675
    X12       CONSTR1   513
    X12       CONSTR2   266
    X12       CONSTR3   937
    X12       CONSTR4   557
    X12       CONSTR5   920
    X12       CONSTR6   939
    X12       CONSTR7   117
    X12       CONSTR8   531
    X12       CONSTR9   782
    X12       CONSTR10  430
    X13       OBJ       842
    X13       CONSTR1   940
    X13       CONSTR2   814
    X13       CONSTR3   814
    X13       CONSTR4   296
    X13       CONSTR5   883
    X13       CONSTR6   625
    X13       CONSTR7   893
    X13       CONSTR8   585
    X13       CONSTR9   428
    X13       CONSTR10  213
    X14       OBJ       1013
    X14       CONSTR1   957
    X14       CONSTR2   687
    X14       CONSTR3   442
    X14       CONSTR4   161
    X14       CONSTR5   665
    X14       CONSTR6   935
    X14       CONSTR7   751
    X14       CONSTR8   548
    X14       CONSTR9   202
    X14       CONSTR10  740
    X15       OBJ       837
    X15       CONSTR1   92
    X15       CONSTR2   738
    X15       CONSTR3   123
    X15       CONSTR4   719
    X15       CONSTR5   748
    X15       CONSTR6   914
    X15       CONSTR7   648
    X15       CONSTR8   400
    X15       CONSTR9   44
    X15       CONSTR10  14
    X16       OBJ       794
    X16       CONSTR1   655
    X16       CONSTR2   392
    X16       CONSTR3   726
    X16       CONSTR4   11
    X16       CONSTR5   446
    X16       CONSTR6   811
    X16       CONSTR7   61
    X16       CONSTR8   708
    X16       CONSTR9   389
    X16       CONSTR10  196
    X17       OBJ       676
    X17       CONSTR1   259
    X17       CONSTR2   239
    X17       CONSTR3   283
    X17       CONSTR4   220
    X17       CONSTR5   515
    X17       CONSTR6   559
    X17       CONSTR7   305
    X17       CONSTR8   118
    X17       CONSTR9   282
    X17       CONSTR10  642
    X18       OBJ       1000
    X18       CONSTR1   183
    X18       CONSTR2   873
    X18       CONSTR3   887
    X18       CONSTR4   901
    X18       CONSTR5   757
    X18       CONSTR6   738
    X18       CONSTR7   627
    X18       CONSTR8   516
    X18       CONSTR9   797
    X18       CONSTR10  328
    X19       OBJ       659
    X19       CONSTR1   893
    X19       CONSTR2   187
    X19       CONSTR3   254
    X19       CONSTR4   831
    X19       CONSTR5   447
    X19       CONSTR6   809
    X19       CONSTR7   655
    X19       CONSTR8   615
    X19       CONSTR9   59
    X19       CONSTR10  562
    X20       OBJ       728
    X20       CONSTR1   918
    X20       CONSTR2   550
    X20       CONSTR3   92
    X20       CONSTR4   270
    X20       CONSTR5   981
    X20       CONSTR6   498
    X20       CONSTR7   731
    X20       CONSTR8   108
    X20       CONSTR9   239
    X20       CONSTR10  291
    X21       OBJ       639
    X21       CONSTR1   131
    X21       CONSTR2   757
    X21       CONSTR3   743
    X21       CONSTR4   720
    X21       CONSTR5   216
    X21       CONSTR6   562
    X21       CONSTR7   684
    X21       CONSTR8   263
    X21       CONSTR9   461
    X21       CONSTR10  166
    X22       OBJ       521
    X22       CONSTR1   157
    X22       CONSTR2   457
    X22       CONSTR3   812
    X22       CONSTR4   237
    X22       CONSTR5   501
    X22       CONSTR6   162
    X22       CONSTR7   13
    X22       CONSTR8   741
    X22       CONSTR9   24
    X22       CONSTR10  670
    X23       OBJ       935
    X23       CONSTR1   214
    X23       CONSTR2   889
    X23       CONSTR3   570
    X23       CONSTR4   391
    X23       CONSTR5   321
    X23       CONSTR6   743
    X23       CONSTR7   375
    X23       CONSTR8   687
    X23       CONSTR9   277
    X23       CONSTR10  268
    X24       OBJ       1030
    X24       CONSTR1   228
    X24       CONSTR2   931
    X24       CONSTR3   818
    X24       CONSTR4   818
    X24       CONSTR5   265
    X24       CONSTR6   580
    X24       CONSTR7   68
    X24       CONSTR8   545
    X24       CONSTR9   481
    X24       CONSTR10  686
    X25       OBJ       884
    X25       CONSTR1   908
    X25       CONSTR2   170
    X25       CONSTR3   361
    X25       CONSTR4   951
    X25       CONSTR5   749
    X25       CONSTR6   390
    X25       CONSTR7   627
    X25       CONSTR8   899
    X25       CONSTR9   91
    X25       CONSTR10  875
    X26       OBJ       722
    X26       CONSTR1   8
    X26       CONSTR2   6
    X26       CONSTR3   751
    X26       CONSTR4   481
    X26       CONSTR5   577
    X26       CONSTR6   933
    X26       CONSTR7   458
    X26       CONSTR8   414
    X26       CONSTR9   827
    X26       CONSTR10  793
    X27       OBJ       505
    X27       CONSTR1   26
    X27       CONSTR2   582
    X27       CONSTR3   834
    X27       CONSTR4   159
    X27       CONSTR5   553
    X27       CONSTR6   234
    X27       CONSTR7   554
    X27       CONSTR8   730
    X27       CONSTR9   444
    X27       CONSTR10  156
    X28       OBJ       664
    X28       CONSTR1   735
    X28       CONSTR2   626
    X28       CONSTR3   26
    X28       CONSTR4   611
    X28       CONSTR5   958
    X28       CONSTR6   37
    X28       CONSTR7   627
    X28       CONSTR8   861
    X28       CONSTR9   324
    X28       CONSTR10  223
    X29       OBJ       638
    X29       CONSTR1   446
    X29       CONSTR2   398
    X29       CONSTR3   773
    X29       CONSTR4   562
    X29       CONSTR5   190
    X29       CONSTR6   919
    X29       CONSTR7   891
    X29       CONSTR8   6
    X29       CONSTR9   347
    X29       CONSTR10  732
    X30       OBJ       870
    X30       CONSTR1   947
    X30       CONSTR2   379
    X30       CONSTR3   598
    X30       CONSTR4   536
    X30       CONSTR5   836
    X30       CONSTR6   165
    X30       CONSTR7   736
    X30       CONSTR8   461
    X30       CONSTR9   344
    X30       CONSTR10  387
    X31       OBJ       548
    X31       CONSTR1   978
    X31       CONSTR2   744
    X31       CONSTR3   331
    X31       CONSTR4   315
    X31       CONSTR5   370
    X31       CONSTR6   36
    X31       CONSTR7   74
    X31       CONSTR8   145
    X31       CONSTR9   670
    X31       CONSTR10  15
    X32       OBJ       497
    X32       CONSTR1   55
    X32       CONSTR2   286
    X32       CONSTR3   143
    X32       CONSTR4   546
    X32       CONSTR5   213
    X32       CONSTR6   508
    X32       CONSTR7   656
    X32       CONSTR8   584
    X32       CONSTR9   474
    X32       CONSTR10  639
    X33       OBJ       525
    X33       CONSTR1   559
    X33       CONSTR2   449
    X33       CONSTR3   536
    X33       CONSTR4   954
    X33       CONSTR5   450
    X33       CONSTR6   62
    X33       CONSTR7   414
    X33       CONSTR8   5
    X33       CONSTR9   257
    X33       CONSTR10  928
    X34       OBJ       991
    X34       CONSTR1   833
    X34       CONSTR2   628
    X34       CONSTR3   799
    X34       CONSTR4   834
    X34       CONSTR5   783
    X34       CONSTR6   711
    X34       CONSTR7   458
    X34       CONSTR8   274
    X34       CONSTR9   390
    X34       CONSTR10  590
    X35       OBJ       745
    X35       CONSTR1   970
    X35       CONSTR2   109
    X35       CONSTR3   911
    X35       CONSTR4   758
    X35       CONSTR5   317
    X35       CONSTR6   259
    X35       CONSTR7   508
    X35       CONSTR8   240
    X35       CONSTR9   406
    X35       CONSTR10  672
    X36       OBJ       1012
    X36       CONSTR1   949
    X36       CONSTR2   61
    X36       CONSTR3   999
    X36       CONSTR4   550
    X36       CONSTR5   421
    X36       CONSTR6   522
    X36       CONSTR7   850
    X36       CONSTR8   569
    X36       CONSTR9   702
    X36       CONSTR10  682
    X37       OBJ       654
    X37       CONSTR1   133
    X37       CONSTR2   744
    X37       CONSTR3   315
    X37       CONSTR4   678
    X37       CONSTR5   492
    X37       CONSTR6   588
    X37       CONSTR7   951
    X37       CONSTR8   129
    X37       CONSTR9   727
    X37       CONSTR10  707
    X38       OBJ       496
    X38       CONSTR1   363
    X38       CONSTR2   61
    X38       CONSTR3   287
    X38       CONSTR4   166
    X38       CONSTR5   915
    X38       CONSTR6   804
    X38       CONSTR7   575
    X38       CONSTR8   467
    X38       CONSTR9   22
    X38       CONSTR10  140
    X39       OBJ       944
    X39       CONSTR1   261
    X39       CONSTR2   100
    X39       CONSTR3   335
    X39       CONSTR4   998
    X39       CONSTR5   735
    X39       CONSTR6   11
    X39       CONSTR7   635
    X39       CONSTR8   760
    X39       CONSTR9   828
    X39       CONSTR10  820
    X40       OBJ       604
    X40       CONSTR1   926
    X40       CONSTR2   485
    X40       CONSTR3   200
    X40       CONSTR4   108
    X40       CONSTR5   401
    X40       CONSTR6   481
    X40       CONSTR7   124
    X40       CONSTR8   442
    X40       CONSTR9   726
    X40       CONSTR10  300
    X41       OBJ       506
    X41       CONSTR1   866
    X41       CONSTR2   520
    X41       CONSTR3   57
    X41       CONSTR4   180
    X41       CONSTR5   176
    X41       CONSTR6   514
    X41       CONSTR7   157
    X41       CONSTR8   668
    X41       CONSTR9   23
    X41       CONSTR10  759
    X42       OBJ       567
    X42       CONSTR1   956
    X42       CONSTR2   874
    X42       CONSTR3   267
    X42       CONSTR4   636
    X42       CONSTR5   721
    X42       CONSTR6   327
    X42       CONSTR7   81
    X42       CONSTR8   734
    X42       CONSTR9   486
    X42       CONSTR10  279
    X43       OBJ       442
    X43       CONSTR1   522
    X43       CONSTR2   299
    X43       CONSTR3   325
    X43       CONSTR4   212
    X43       CONSTR5   784
    X43       CONSTR6   349
    X43       CONSTR7   125
    X43       CONSTR8   775
    X43       CONSTR9   461
    X43       CONSTR10  240
    X44       OBJ       740
    X44       CONSTR1   77
    X44       CONSTR2   602
    X44       CONSTR3   988
    X44       CONSTR4   136
    X44       CONSTR5   813
    X44       CONSTR6   884
    X44       CONSTR7   152
    X44       CONSTR8   213
    X44       CONSTR9   18
    X44       CONSTR10  862
    X45       OBJ       647
    X45       CONSTR1   578
    X45       CONSTR2   651
    X45       CONSTR3   583
    X45       CONSTR4   362
    X45       CONSTR5   174
    X45       CONSTR6   220
    X45       CONSTR7   367
    X45       CONSTR8   932
    X45       CONSTR9   834
    X45       CONSTR10  933
    X46       OBJ       727
    X46       CONSTR1   61
    X46       CONSTR2   278
    X46       CONSTR3   786
    X46       CONSTR4   762
    X46       CONSTR5   90
    X46       CONSTR6   794
    X46       CONSTR7   351
    X46       CONSTR8   848
    X46       CONSTR9   896
    X46       CONSTR10  120
    X47       OBJ       636
    X47       CONSTR1   884
    X47       CONSTR2   660
    X47       CONSTR3   132
    X47       CONSTR4   834
    X47       CONSTR5   912
    X47       CONSTR6   502
    X47       CONSTR7   401
    X47       CONSTR8   152
    X47       CONSTR9   427
    X47       CONSTR10  947
    X48       OBJ       516
    X48       CONSTR1   556
    X48       CONSTR2   755
    X48       CONSTR3   620
    X48       CONSTR4   159
    X48       CONSTR5   952
    X48       CONSTR6   571
    X48       CONSTR7   191
    X48       CONSTR8   42
    X48       CONSTR9   242
    X48       CONSTR10  174
    X49       OBJ       834
    X49       CONSTR1   598
    X49       CONSTR2   381
    X49       CONSTR3   169
    X49       CONSTR4   634
    X49       CONSTR5   808
    X49       CONSTR6   361
    X49       CONSTR7   123
    X49       CONSTR8   546
    X49       CONSTR9   248
    X49       CONSTR10  110
    X50       OBJ       522
    X50       CONSTR1   487
    X50       CONSTR2   989
    X50       CONSTR3   719
    X50       CONSTR4   511
    X50       CONSTR5   637
    X50       CONSTR6   513
    X50       CONSTR7   306
    X50       CONSTR8   16
    X50       CONSTR9   402
    X50       CONSTR10  184
    X51       OBJ       793
    X51       CONSTR1   242
    X51       CONSTR2   735
    X51       CONSTR3   585
    X51       CONSTR4   347
    X51       CONSTR5   2
    X51       CONSTR6   88
    X51       CONSTR7   36
    X51       CONSTR8   546
    X51       CONSTR9   914
    X51       CONSTR10  555
    X52       OBJ       788
    X52       CONSTR1   777
    X52       CONSTR2   415
    X52       CONSTR3   574
    X52       CONSTR4   25
    X52       CONSTR5   712
    X52       CONSTR6   139
    X52       CONSTR7   924
    X52       CONSTR8   326
    X52       CONSTR9   817
    X52       CONSTR10  714
    X53       OBJ       796
    X53       CONSTR1   406
    X53       CONSTR2   158
    X53       CONSTR3   287
    X53       CONSTR4   175
    X53       CONSTR5   410
    X53       CONSTR6   428
    X53       CONSTR7   830
    X53       CONSTR8   434
    X53       CONSTR9   606
    X53       CONSTR10  776
    X54       OBJ       501
    X54       CONSTR1   725
    X54       CONSTR2   16
    X54       CONSTR3   256
    X54       CONSTR4   41
    X54       CONSTR5   180
    X54       CONSTR6   803
    X54       CONSTR7   399
    X54       CONSTR8   786
    X54       CONSTR9   492
    X54       CONSTR10  888
    X55       OBJ       566
    X55       CONSTR1   987
    X55       CONSTR2   38
    X55       CONSTR3   943
    X55       CONSTR4   849
    X55       CONSTR5   22
    X55       CONSTR6   369
    X55       CONSTR7   414
    X55       CONSTR8   265
    X55       CONSTR9   440
    X55       CONSTR10  888
    X56       OBJ       838
    X56       CONSTR1   369
    X56       CONSTR2   555
    X56       CONSTR3   158
    X56       CONSTR4   801
    X56       CONSTR5   57
    X56       CONSTR6   119
    X56       CONSTR7   939
    X56       CONSTR8   763
    X56       CONSTR9   139
    X56       CONSTR10  682
    X57       OBJ       574
    X57       CONSTR1   496
    X57       CONSTR2   981
    X57       CONSTR3   186
    X57       CONSTR4   194
    X57       CONSTR5   678
    X57       CONSTR6   776
    X57       CONSTR7   171
    X57       CONSTR8   680
    X57       CONSTR9   568
    X57       CONSTR10  361
    X58       OBJ       555
    X58       CONSTR1   477
    X58       CONSTR2   772
    X58       CONSTR3   72
    X58       CONSTR4   864
    X58       CONSTR5   61
    X58       CONSTR6   660
    X58       CONSTR7   544
    X58       CONSTR8   109
    X58       CONSTR9   756
    X58       CONSTR10  80
    X59       OBJ       565
    X59       CONSTR1   375
    X59       CONSTR2   482
    X59       CONSTR3   451
    X59       CONSTR4   345
    X59       CONSTR5   55
    X59       CONSTR6   645
    X59       CONSTR7   743
    X59       CONSTR8   31
    X59       CONSTR9   841
    X59       CONSTR10  547
    X60       OBJ       479
    X60       CONSTR1   109
    X60       CONSTR2   1000
    X60       CONSTR3   270
    X60       CONSTR4   610
    X60       CONSTR5   131
    X60       CONSTR6   265
    X60       CONSTR7   325
    X60       CONSTR8   378
    X60       CONSTR9   263
    X60       CONSTR10  8
    X61       OBJ       620
    X61       CONSTR1   251
    X61       CONSTR2   8
    X61       CONSTR3   616
    X61       CONSTR4   547
    X61       CONSTR5   693
    X61       CONSTR6   981
    X61       CONSTR7   629
    X61       CONSTR8   222
    X61       CONSTR9   212
    X61       CONSTR10  268
    X62       OBJ       563
    X62       CONSTR1   58
    X62       CONSTR2   264
    X62       CONSTR3   556
    X62       CONSTR4   590
    X62       CONSTR5   665
    X62       CONSTR6   117
    X62       CONSTR7   115
    X62       CONSTR8   60
    X62       CONSTR9   249
    X62       CONSTR10  785
    X63       OBJ       845
    X63       CONSTR1   14
    X63       CONSTR2   24
    X63       CONSTR3   467
    X63       CONSTR4   879
    X63       CONSTR5   817
    X63       CONSTR6   972
    X63       CONSTR7   952
    X63       CONSTR8   752
    X63       CONSTR9   589
    X63       CONSTR10  645
    X64       OBJ       632
    X64       CONSTR1   790
    X64       CONSTR2   62
    X64       CONSTR3   517
    X64       CONSTR4   601
    X64       CONSTR5   847
    X64       CONSTR6   254
    X64       CONSTR7   840
    X64       CONSTR8   929
    X64       CONSTR9   492
    X64       CONSTR10  721
    X65       OBJ       731
    X65       CONSTR1   114
    X65       CONSTR2   733
    X65       CONSTR3   312
    X65       CONSTR4   816
    X65       CONSTR5   918
    X65       CONSTR6   900
    X65       CONSTR7   682
    X65       CONSTR8   872
    X65       CONSTR9   930
    X65       CONSTR10  662
    X66       OBJ       439
    X66       CONSTR1   19
    X66       CONSTR2   106
    X66       CONSTR3   912
    X66       CONSTR4   829
    X66       CONSTR5   111
    X66       CONSTR6   302
    X66       CONSTR7   304
    X66       CONSTR8   61
    X66       CONSTR9   289
    X66       CONSTR10  716
    X67       OBJ       878
    X67       CONSTR1   737
    X67       CONSTR2   60
    X67       CONSTR3   503
    X67       CONSTR4   305
    X67       CONSTR5   688
    X67       CONSTR6   787
    X67       CONSTR7   539
    X67       CONSTR8   344
    X67       CONSTR9   987
    X67       CONSTR10  879
    X68       OBJ       622
    X68       CONSTR1   329
    X68       CONSTR2   627
    X68       CONSTR3   753
    X68       CONSTR4   589
    X68       CONSTR5   583
    X68       CONSTR6   293
    X68       CONSTR7   561
    X68       CONSTR8   4
    X68       CONSTR9   13
    X68       CONSTR10  161
    X69       OBJ       601
    X69       CONSTR1   593
    X69       CONSTR2   792
    X69       CONSTR3   367
    X69       CONSTR4   878
    X69       CONSTR5   934
    X69       CONSTR6   732
    X69       CONSTR7   341
    X69       CONSTR8   228
    X69       CONSTR9   669
    X69       CONSTR10  472
    X70       OBJ       696
    X70       CONSTR1   609
    X70       CONSTR2   641
    X70       CONSTR3   583
    X70       CONSTR4   303
    X70       CONSTR5   550
    X70       CONSTR6   232
    X70       CONSTR7   115
    X70       CONSTR8   843
    X70       CONSTR9   571
    X70       CONSTR10  639
    X71       OBJ       568
    X71       CONSTR1   594
    X71       CONSTR2   241
    X71       CONSTR3   445
    X71       CONSTR4   812
    X71       CONSTR5   153
    X71       CONSTR6   236
    X71       CONSTR7   210
    X71       CONSTR8   860
    X71       CONSTR9   602
    X71       CONSTR10  829
    X72       OBJ       898
    X72       CONSTR1   379
    X72       CONSTR2   945
    X72       CONSTR3   452
    X72       CONSTR4   247
    X72       CONSTR5   560
    X72       CONSTR6   782
    X72       CONSTR7   809
    X72       CONSTR8   141
    X72       CONSTR9   917
    X72       CONSTR10  664
    X73       OBJ       865
    X73       CONSTR1   105
    X73       CONSTR2   723
    X73       CONSTR3   599
    X73       CONSTR4   859
    X73       CONSTR5   227
    X73       CONSTR6   2
    X73       CONSTR7   249
    X73       CONSTR8   218
    X73       CONSTR9   955
    X73       CONSTR10  450
    X74       OBJ       528
    X74       CONSTR1   635
    X74       CONSTR2   216
    X74       CONSTR3   636
    X74       CONSTR4   986
    X74       CONSTR5   452
    X74       CONSTR6   29
    X74       CONSTR7   830
    X74       CONSTR8   195
    X74       CONSTR9   188
    X74       CONSTR10  307
    X75       OBJ       894
    X75       CONSTR1   748
    X75       CONSTR2   910
    X75       CONSTR3   838
    X75       CONSTR4   161
    X75       CONSTR5   753
    X75       CONSTR6   621
    X75       CONSTR7   169
    X75       CONSTR8   963
    X75       CONSTR9   948
    X75       CONSTR10  817
    X76       OBJ       404
    X76       CONSTR1   819
    X76       CONSTR2   59
    X76       CONSTR3   231
    X76       CONSTR4   361
    X76       CONSTR5   424
    X76       CONSTR6   530
    X76       CONSTR7   360
    X76       CONSTR8   131
    X76       CONSTR9   297
    X76       CONSTR10  798
    X77       OBJ       871
    X77       CONSTR1   948
    X77       CONSTR2   583
    X77       CONSTR3   955
    X77       CONSTR4   328
    X77       CONSTR5   464
    X77       CONSTR6   850
    X77       CONSTR7   518
    X77       CONSTR8   152
    X77       CONSTR9   947
    X77       CONSTR10  516
    X78       OBJ       698
    X78       CONSTR1   961
    X78       CONSTR2   224
    X78       CONSTR3   828
    X78       CONSTR4   276
    X78       CONSTR5   201
    X78       CONSTR6   804
    X78       CONSTR7   284
    X78       CONSTR8   88
    X78       CONSTR9   98
    X78       CONSTR10  279
    X79       OBJ       724
    X79       CONSTR1   794
    X79       CONSTR2   680
    X79       CONSTR3   186
    X79       CONSTR4   652
    X79       CONSTR5   271
    X79       CONSTR6   928
    X79       CONSTR7   18
    X79       CONSTR8   467
    X79       CONSTR9   624
    X79       CONSTR10  521
    X80       OBJ       665
    X80       CONSTR1   91
    X80       CONSTR2   958
    X80       CONSTR3   9
    X80       CONSTR4   296
    X80       CONSTR5   919
    X80       CONSTR6   974
    X80       CONSTR7   572
    X80       CONSTR8   899
    X80       CONSTR9   607
    X80       CONSTR10  727
    X81       OBJ       869
    X81       CONSTR1   943
    X81       CONSTR2   493
    X81       CONSTR3   266
    X81       CONSTR4   791
    X81       CONSTR5   191
    X81       CONSTR6   233
    X81       CONSTR7   726
    X81       CONSTR8   298
    X81       CONSTR9   347
    X81       CONSTR10  459
    X82       OBJ       581
    X82       CONSTR1   810
    X82       CONSTR2   539
    X82       CONSTR3   648
    X82       CONSTR4   353
    X82       CONSTR5   715
    X82       CONSTR6   317
    X82       CONSTR7   109
    X82       CONSTR8   143
    X82       CONSTR9   290
    X82       CONSTR10  706
    X83       OBJ       547
    X83       CONSTR1   361
    X83       CONSTR2   871
    X83       CONSTR3   604
    X83       CONSTR4   586
    X83       CONSTR5   35
    X83       CONSTR6   320
    X83       CONSTR7   316
    X83       CONSTR8   444
    X83       CONSTR9   251
    X83       CONSTR10  376
    X84       OBJ       591
    X84       CONSTR1   60
    X84       CONSTR2   407
    X84       CONSTR3   486
    X84       CONSTR4   785
    X84       CONSTR5   728
    X84       CONSTR6   759
    X84       CONSTR7   519
    X84       CONSTR8   313
    X84       CONSTR9   667
    X84       CONSTR10  767
    X85       OBJ       580
    X85       CONSTR1   202
    X85       CONSTR2   882
    X85       CONSTR3   966
    X85       CONSTR4   576
    X85       CONSTR5   178
    X85       CONSTR6   950
    X85       CONSTR7   28
    X85       CONSTR8   507
    X85       CONSTR9   159
    X85       CONSTR10  909
    X86       OBJ       545
    X86       CONSTR1   134
    X86       CONSTR2   447
    X86       CONSTR3   451
    X86       CONSTR4   684
    X86       CONSTR5   560
    X86       CONSTR6   185
    X86       CONSTR7   812
    X86       CONSTR8   907
    X86       CONSTR9   489
    X86       CONSTR10  586
    X87       OBJ       589
    X87       CONSTR1   117
    X87       CONSTR2   698
    X87       CONSTR3   254
    X87       CONSTR4   265
    X87       CONSTR5   683
    X87       CONSTR6   302
    X87       CONSTR7   563
    X87       CONSTR8   5
    X87       CONSTR9   215
    X87       CONSTR10  485
    X88       OBJ       831
    X88       CONSTR1   284
    X88       CONSTR2   752
    X88       CONSTR3   64
    X88       CONSTR4   109
    X88       CONSTR5   644
    X88       CONSTR6   876
    X88       CONSTR7   923
    X88       CONSTR8   885
    X88       CONSTR9   571
    X88       CONSTR10  476
    X89       OBJ       1020
    X89       CONSTR1   784
    X89       CONSTR2   430
    X89       CONSTR3   540
    X89       CONSTR4   930
    X89       CONSTR5   168
    X89       CONSTR6   820
    X89       CONSTR7   650
    X89       CONSTR8   278
    X89       CONSTR9   537
    X89       CONSTR10  118
    X90       OBJ       987
    X90       CONSTR1   955
    X90       CONSTR2   784
    X90       CONSTR3   999
    X90       CONSTR4   827
    X90       CONSTR5   421
    X90       CONSTR6   255
    X90       CONSTR7   625
    X90       CONSTR8   710
    X90       CONSTR9   141
    X90       CONSTR10  167
    X91       OBJ       835
    X91       CONSTR1   132
    X91       CONSTR2   761
    X91       CONSTR3   274
    X91       CONSTR4   189
    X91       CONSTR5   345
    X91       CONSTR6   463
    X91       CONSTR7   310
    X91       CONSTR8   952
    X91       CONSTR9   511
    X91       CONSTR10  997
    X92       OBJ       780
    X92       CONSTR1   833
    X92       CONSTR2   282
    X92       CONSTR3   814
    X92       CONSTR4   468
    X92       CONSTR5   971
    X92       CONSTR6   966
    X92       CONSTR7   191
    X92       CONSTR8   902
    X92       CONSTR9   191
    X92       CONSTR10  438
    X93       OBJ       710
    X93       CONSTR1   311
    X93       CONSTR2   764
    X93       CONSTR3   217
    X93       CONSTR4   28
    X93       CONSTR5   112
    X93       CONSTR6   505
    X93       CONSTR7   935
    X93       CONSTR8   395
    X93       CONSTR9   940
    X93       CONSTR10  694
    X94       OBJ       505
    X94       CONSTR1   656
    X94       CONSTR2   117
    X94       CONSTR3   720
    X94       CONSTR4   321
    X94       CONSTR5   177
    X94       CONSTR6   806
    X94       CONSTR7   984
    X94       CONSTR8   379
    X94       CONSTR9   113
    X94       CONSTR10  446
    X95       OBJ       736
    X95       CONSTR1   788
    X95       CONSTR2   366
    X95       CONSTR3   413
    X95       CONSTR4   14
    X95       CONSTR5   422
    X95       CONSTR6   342
    X95       CONSTR7   611
    X95       CONSTR8   766
    X95       CONSTR9   479
    X95       CONSTR10  761
    X96       OBJ       722
    X96       CONSTR1   98
    X96       CONSTR2   282
    X96       CONSTR3   367
    X96       CONSTR4   243
    X96       CONSTR5   633
    X96       CONSTR6   137
    X96       CONSTR7   47
    X96       CONSTR8   88
    X96       CONSTR9   315
    X96       CONSTR10  840
    X97       OBJ       832
    X97       CONSTR1   695
    X97       CONSTR2   223
    X97       CONSTR3   17
    X97       CONSTR4   497
    X97       CONSTR5   639
    X97       CONSTR6   475
    X97       CONSTR7   634
    X97       CONSTR8   378
    X97       CONSTR9   662
    X97       CONSTR10  761
    X98       OBJ       654
    X98       CONSTR1   892
    X98       CONSTR2   389
    X98       CONSTR3   326
    X98       CONSTR4   299
    X98       CONSTR5   281
    X98       CONSTR6   710
    X98       CONSTR7   566
    X98       CONSTR8   711
    X98       CONSTR9   707
    X98       CONSTR10  559
    X99       OBJ       503
    X99       CONSTR1   726
    X99       CONSTR2   195
    X99       CONSTR3   291
    X99       CONSTR4   450
    X99       CONSTR5   389
    X99       CONSTR6   480
    X99       CONSTR7   418
    X99       CONSTR8   17
    X99       CONSTR9   614
    X99       CONSTR10  664
    X100      OBJ       464
    X100      CONSTR1   161
    X100      CONSTR2   67
    X100      CONSTR3   108
    X100      CONSTR4   709
    X100      CONSTR5   714
    X100      CONSTR6   351
    X100      CONSTR7   309
    X100      CONSTR8   189
    X100      CONSTR9   552
    X100      CONSTR10  755
    INT0001   'MARKER'  'INTEND'
RHS
    RHS10001  CONSTR1   37699
    RHS10001  CONSTR2   36914
    RHS10001  CONSTR3   37191
    RHS10001  CONSTR4   37864
    RHS10001  CONSTR5   37792
    RHS10001  CONSTR6   38604
    RHS10001  CONSTR7   35111
    RHS10001  CONSTR8   34466
    RHS10001  CONSTR9   34577
    RHS10001  CONSTR10  40545
BOUNDS
 BV BND       X1        .00
 BV BND       X2        .00
 BV BND       X3        .00
 BV BND       X4        .00
 BV BND       X5        .00
 BV BND       X6        .00
 BV BND       X7        .00
 BV BND       X8        .00
 BV BND       X9        .00
 BV BND       X10       .00
 BV BND       X11       .00
 BV BND       X12       .00
 BV BND       X13       .00
 BV BND       X14       .00
 BV BND       X15       .00
 BV BND       X16       .00
 BV BND       X17       .00
 BV BND       X18       .00
 BV BND       X19       .00
 BV BND       X20       .00
 BV BND       X21       .00
 BV BND       X22       .00
 BV BND       X23       .00
 BV BND       X24       .00
 BV BND       X25       .00
 BV BND       X26       .00
 BV BND       X27       .00
 BV BND       X28       .00
 BV BND       X29       .00
 BV BND       X30       .00
 BV BND       X31       .00
 BV BND       X32       .00
 BV BND       X33       .00
 BV BND       X34       .00
 BV BND       X35       .00
 BV BND       X36       .00
 BV BND       X37       .00
 BV BND       X38       .00
 BV BND       X39       .00
 BV BND       X40       .00
 BV BND       X41       .00
 BV BND       X42       .00
 BV BND       X43       .00
 BV BND       X44       .00
 BV BND       X45       .00
 BV BND       X46       .00
 BV BND       X47       .00
 BV BND       X48       .00
 BV BND       X49       .00
 BV BND       X50       .00
 BV BND       X51       .00
 BV BND       X52       .00
 BV BND       X53       .00
 BV BND       X54       .00
 BV BND       X55       .00
 BV BND       X56       .00
 BV BND       X57       .00
 BV BND       X58       .00
 BV BND       X59       .00
 BV BND       X60       .00
 BV BND       X61       .00
 BV BND       X62       .00
 BV BND       X63       .00
 BV BND       X64       .00
 BV BND       X65       .00
 BV BND       X66       .00
 BV BND       X67       .00
 BV BND       X68       .00
 BV BND       X69       .00
 BV BND       X70       .00
 BV BND       X71       .00
 BV BND       X72       .00
 BV BND       X73       .00
 BV BND       X74       .00
 BV BND       X75       .00
 BV BND       X76       .00
 BV BND       X77       .00
 BV BND       X78       .00
 BV BND       X79       .00
 BV BND       X80       .00
 BV BND       X81       .00
 BV BND       X82       .00
 BV BND       X83       .00
 BV BND       X84       .00
 BV BND       X85       .00
 BV BND       X86       .00
 BV BND       X87       .00
 BV BND       X88       .00
 BV BND       X89       .00
 BV BND       X90       .00
 BV BND       X91       .00
 BV BND       X92       .00
 BV BND       X93       .00
 BV BND       X94       .00
 BV BND       X95       .00
 BV BND       X96       .00
 BV BND       X97       .00
 BV BND       X98       .00
 BV BND       X99       .00
 BV BND       X100      .00
ENDATA
